p cnf 252 750
1 2 0
-1 -2 0
25 26 0
-25 -26 0
49 50 0
-49 -50 0
73 74 0
-73 -74 0
97 98 0
-97 -98 0
3 4 0
-3 -4 0
27 28 0
-27 -28 0
51 52 0
-51 -52 0
75 76 0
-75 -76 0
99 100 0
-99 -100 0
5 6 0
-5 -6 0
29 30 0
-29 -30 0
53 54 0
-53 -54 0
77 78 0
-77 -78 0
101 102 0
-101 -102 0
7 8 0
-7 -8 0
31 32 0
-31 -32 0
55 56 0
-55 -56 0
79 80 0
-79 -80 0
103 104 0
-103 -104 0
9 10 0
-9 -10 0
33 34 0
-33 -34 0
57 58 0
-57 -58 0
81 82 0
-81 -82 0
105 106 0
-105 -106 0
11 12 0
-11 -12 0
35 36 0
-35 -36 0
59 60 0
-59 -60 0
83 84 0
-83 -84 0
107 108 0
-107 -108 0
13 14 0
-13 -14 0
37 38 0
-37 -38 0
61 62 0
-61 -62 0
85 86 0
-85 -86 0
109 110 0
-109 -110 0
15 16 0
-15 -16 0
39 40 0
-39 -40 0
63 64 0
-63 -64 0
87 88 0
-87 -88 0
111 112 0
-111 -112 0
17 18 0
-17 -18 0
41 42 0
-41 -42 0
65 66 0
-65 -66 0
89 90 0
-89 -90 0
113 114 0
-113 -114 0
19 20 0
-19 -20 0
43 44 0
-43 -44 0
67 68 0
-67 -68 0
91 92 0
-91 -92 0
115 116 0
-115 -116 0
21 22 0
-21 -22 0
45 46 0
-45 -46 0
69 70 0
-69 -70 0
93 94 0
-93 -94 0
117 118 0
-117 -118 0
23 24 0
-23 -24 0
47 48 0
-47 -48 0
71 72 0
-71 -72 0
95 96 0
-95 -96 0
119 120 0
-119 -120 0
-1 -25 4 0
-1 -26 4 0
-2 -25 4 0
-2 -26 3 0
-25 -1 -49 28 0
-25 -2 -49 28 0
-25 -1 -50 28 0
-25 -2 -50 28 0
-26 -1 -49 28 0
-26 -2 -49 28 0
-26 -1 -50 28 0
-26 -2 -50 27 0
-49 -25 -73 52 0
-49 -26 -73 52 0
-49 -25 -74 52 0
-49 -26 -74 52 0
-50 -25 -73 52 0
-50 -26 -73 52 0
-50 -25 -74 52 0
-50 -26 -74 51 0
-73 -49 -97 76 0
-73 -50 -97 76 0
-73 -49 -98 76 0
-73 -50 -98 76 0
-74 -49 -97 76 0
-74 -50 -97 76 0
-74 -49 -98 76 0
-74 -50 -98 75 0
-97 -73 100 0
-97 -74 100 0
-98 -73 100 0
-98 -74 99 0
-3 -27 6 0
-3 -28 6 0
-4 -27 6 0
-4 -28 5 0
-27 -3 -51 30 0
-27 -4 -51 30 0
-27 -3 -52 30 0
-27 -4 -52 30 0
-28 -3 -51 30 0
-28 -4 -51 30 0
-28 -3 -52 30 0
-28 -4 -52 29 0
-51 -27 -75 54 0
-51 -28 -75 54 0
-51 -27 -76 54 0
-51 -28 -76 54 0
-52 -27 -75 54 0
-52 -28 -75 54 0
-52 -27 -76 54 0
-52 -28 -76 53 0
-75 -51 -99 78 0
-75 -52 -99 78 0
-75 -51 -100 78 0
-75 -52 -100 78 0
-76 -51 -99 78 0
-76 -52 -99 78 0
-76 -51 -100 78 0
-76 -52 -100 77 0
-99 -75 102 0
-99 -76 102 0
-100 -75 102 0
-100 -76 101 0
-5 -29 8 0
-5 -30 8 0
-6 -29 8 0
-6 -30 7 0
-29 -5 -53 32 0
-29 -6 -53 32 0
-29 -5 -54 32 0
-29 -6 -54 32 0
-30 -5 -53 32 0
-30 -6 -53 32 0
-30 -5 -54 32 0
-30 -6 -54 31 0
-53 -29 -77 56 0
-53 -30 -77 56 0
-53 -29 -78 56 0
-53 -30 -78 56 0
-54 -29 -77 56 0
-54 -30 -77 56 0
-54 -29 -78 56 0
-54 -30 -78 55 0
-77 -53 -101 80 0
-77 -54 -101 80 0
-77 -53 -102 80 0
-77 -54 -102 80 0
-78 -53 -101 80 0
-78 -54 -101 80 0
-78 -53 -102 80 0
-78 -54 -102 79 0
-101 -77 104 0
-101 -78 104 0
-102 -77 104 0
-102 -78 103 0
-7 -31 10 0
-7 -32 10 0
-8 -31 10 0
-8 -32 9 0
-31 -7 -55 34 0
-31 -8 -55 34 0
-31 -7 -56 34 0
-31 -8 -56 34 0
-32 -7 -55 34 0
-32 -8 -55 34 0
-32 -7 -56 34 0
-32 -8 -56 33 0
-55 -31 -79 58 0
-55 -32 -79 58 0
-55 -31 -80 58 0
-55 -32 -80 58 0
-56 -31 -79 58 0
-56 -32 -79 58 0
-56 -31 -80 58 0
-56 -32 -80 57 0
-79 -55 -103 82 0
-79 -56 -103 82 0
-79 -55 -104 82 0
-79 -56 -104 82 0
-80 -55 -103 82 0
-80 -56 -103 82 0
-80 -55 -104 82 0
-80 -56 -104 81 0
-103 -79 106 0
-103 -80 106 0
-104 -79 106 0
-104 -80 105 0
-9 -33 12 0
-9 -34 12 0
-10 -33 12 0
-10 -34 11 0
-33 -9 -57 36 0
-33 -10 -57 36 0
-33 -9 -58 36 0
-33 -10 -58 36 0
-34 -9 -57 36 0
-34 -10 -57 36 0
-34 -9 -58 36 0
-34 -10 -58 35 0
-57 -33 -81 60 0
-57 -34 -81 60 0
-57 -33 -82 60 0
-57 -34 -82 60 0
-58 -33 -81 60 0
-58 -34 -81 60 0
-58 -33 -82 60 0
-58 -34 -82 59 0
-81 -57 -105 84 0
-81 -58 -105 84 0
-81 -57 -106 84 0
-81 -58 -106 84 0
-82 -57 -105 84 0
-82 -58 -105 84 0
-82 -57 -106 84 0
-82 -58 -106 83 0
-105 -81 108 0
-105 -82 108 0
-106 -81 108 0
-106 -82 107 0
-11 -35 14 0
-11 -36 14 0
-12 -35 14 0
-12 -36 13 0
-35 -11 -59 38 0
-35 -12 -59 38 0
-35 -11 -60 38 0
-35 -12 -60 38 0
-36 -11 -59 38 0
-36 -12 -59 38 0
-36 -11 -60 38 0
-36 -12 -60 37 0
-59 -35 -83 62 0
-59 -36 -83 62 0
-59 -35 -84 62 0
-59 -36 -84 62 0
-60 -35 -83 62 0
-60 -36 -83 62 0
-60 -35 -84 62 0
-60 -36 -84 61 0
-83 -59 -107 86 0
-83 -60 -107 86 0
-83 -59 -108 86 0
-83 -60 -108 86 0
-84 -59 -107 86 0
-84 -60 -107 86 0
-84 -59 -108 86 0
-84 -60 -108 85 0
-107 -83 110 0
-107 -84 110 0
-108 -83 110 0
-108 -84 109 0
-13 -37 16 0
-13 -38 16 0
-14 -37 16 0
-14 -38 15 0
-37 -13 -61 40 0
-37 -14 -61 40 0
-37 -13 -62 40 0
-37 -14 -62 40 0
-38 -13 -61 40 0
-38 -14 -61 40 0
-38 -13 -62 40 0
-38 -14 -62 39 0
-61 -37 -85 64 0
-61 -38 -85 64 0
-61 -37 -86 64 0
-61 -38 -86 64 0
-62 -37 -85 64 0
-62 -38 -85 64 0
-62 -37 -86 64 0
-62 -38 -86 63 0
-85 -61 -109 88 0
-85 -62 -109 88 0
-85 -61 -110 88 0
-85 -62 -110 88 0
-86 -61 -109 88 0
-86 -62 -109 88 0
-86 -61 -110 88 0
-86 -62 -110 87 0
-109 -85 112 0
-109 -86 112 0
-110 -85 112 0
-110 -86 111 0
-15 -39 18 0
-15 -40 18 0
-16 -39 18 0
-16 -40 17 0
-39 -15 -63 42 0
-39 -16 -63 42 0
-39 -15 -64 42 0
-39 -16 -64 42 0
-40 -15 -63 42 0
-40 -16 -63 42 0
-40 -15 -64 42 0
-40 -16 -64 41 0
-63 -39 -87 66 0
-63 -40 -87 66 0
-63 -39 -88 66 0
-63 -40 -88 66 0
-64 -39 -87 66 0
-64 -40 -87 66 0
-64 -39 -88 66 0
-64 -40 -88 65 0
-87 -63 -111 90 0
-87 -64 -111 90 0
-87 -63 -112 90 0
-87 -64 -112 90 0
-88 -63 -111 90 0
-88 -64 -111 90 0
-88 -63 -112 90 0
-88 -64 -112 89 0
-111 -87 114 0
-111 -88 114 0
-112 -87 114 0
-112 -88 113 0
-17 -41 20 0
-17 -42 20 0
-18 -41 20 0
-18 -42 19 0
-41 -17 -65 44 0
-41 -18 -65 44 0
-41 -17 -66 44 0
-41 -18 -66 44 0
-42 -17 -65 44 0
-42 -18 -65 44 0
-42 -17 -66 44 0
-42 -18 -66 43 0
-65 -41 -89 68 0
-65 -42 -89 68 0
-65 -41 -90 68 0
-65 -42 -90 68 0
-66 -41 -89 68 0
-66 -42 -89 68 0
-66 -41 -90 68 0
-66 -42 -90 67 0
-89 -65 -113 92 0
-89 -66 -113 92 0
-89 -65 -114 92 0
-89 -66 -114 92 0
-90 -65 -113 92 0
-90 -66 -113 92 0
-90 -65 -114 92 0
-90 -66 -114 91 0
-113 -89 116 0
-113 -90 116 0
-114 -89 116 0
-114 -90 115 0
-19 -43 22 0
-19 -44 22 0
-20 -43 22 0
-20 -44 21 0
-43 -19 -67 46 0
-43 -20 -67 46 0
-43 -19 -68 46 0
-43 -20 -68 46 0
-44 -19 -67 46 0
-44 -20 -67 46 0
-44 -19 -68 46 0
-44 -20 -68 45 0
-67 -43 -91 70 0
-67 -44 -91 70 0
-67 -43 -92 70 0
-67 -44 -92 70 0
-68 -43 -91 70 0
-68 -44 -91 70 0
-68 -43 -92 70 0
-68 -44 -92 69 0
-91 -67 -115 94 0
-91 -68 -115 94 0
-91 -67 -116 94 0
-91 -68 -116 94 0
-92 -67 -115 94 0
-92 -68 -115 94 0
-92 -67 -116 94 0
-92 -68 -116 93 0
-115 -91 118 0
-115 -92 118 0
-116 -91 118 0
-116 -92 117 0
-21 -45 24 0
-21 -46 24 0
-22 -45 24 0
-22 -46 23 0
-45 -21 -69 48 0
-45 -22 -69 48 0
-45 -21 -70 48 0
-45 -22 -70 48 0
-46 -21 -69 48 0
-46 -22 -69 48 0
-46 -21 -70 48 0
-46 -22 -70 47 0
-69 -45 -93 72 0
-69 -46 -93 72 0
-69 -45 -94 72 0
-69 -46 -94 72 0
-70 -45 -93 72 0
-70 -46 -93 72 0
-70 -45 -94 72 0
-70 -46 -94 71 0
-93 -69 -117 96 0
-93 -70 -117 96 0
-93 -69 -118 96 0
-93 -70 -118 96 0
-94 -69 -117 96 0
-94 -70 -117 96 0
-94 -69 -118 96 0
-94 -70 -118 95 0
-117 -93 120 0
-117 -94 120 0
-118 -93 120 0
-118 -94 119 0
122 123 124 125 126 127 128 129 130 131 132 0
135 136 -122 0
1 -135 0
3 -135 0
2 -136 0
4 -136 0
159 160 -122 0
25 -159 0
27 -159 0
26 -160 0
28 -160 0
183 184 -122 0
49 -183 0
51 -183 0
50 -184 0
52 -184 0
207 208 -122 0
73 -207 0
75 -207 0
74 -208 0
76 -208 0
231 232 -122 0
97 -231 0
99 -231 0
98 -232 0
100 -232 0
137 138 -123 0
1 -137 0
5 -137 0
2 -138 0
6 -138 0
161 162 -123 0
25 -161 0
29 -161 0
26 -162 0
30 -162 0
185 186 -123 0
49 -185 0
53 -185 0
50 -186 0
54 -186 0
209 210 -123 0
73 -209 0
77 -209 0
74 -210 0
78 -210 0
233 234 -123 0
97 -233 0
101 -233 0
98 -234 0
102 -234 0
139 140 -124 0
1 -139 0
7 -139 0
2 -140 0
8 -140 0
163 164 -124 0
25 -163 0
31 -163 0
26 -164 0
32 -164 0
187 188 -124 0
49 -187 0
55 -187 0
50 -188 0
56 -188 0
211 212 -124 0
73 -211 0
79 -211 0
74 -212 0
80 -212 0
235 236 -124 0
97 -235 0
103 -235 0
98 -236 0
104 -236 0
141 142 -125 0
1 -141 0
9 -141 0
2 -142 0
10 -142 0
165 166 -125 0
25 -165 0
33 -165 0
26 -166 0
34 -166 0
189 190 -125 0
49 -189 0
57 -189 0
50 -190 0
58 -190 0
213 214 -125 0
73 -213 0
81 -213 0
74 -214 0
82 -214 0
237 238 -125 0
97 -237 0
105 -237 0
98 -238 0
106 -238 0
143 144 -126 0
1 -143 0
11 -143 0
2 -144 0
12 -144 0
167 168 -126 0
25 -167 0
35 -167 0
26 -168 0
36 -168 0
191 192 -126 0
49 -191 0
59 -191 0
50 -192 0
60 -192 0
215 216 -126 0
73 -215 0
83 -215 0
74 -216 0
84 -216 0
239 240 -126 0
97 -239 0
107 -239 0
98 -240 0
108 -240 0
145 146 -127 0
1 -145 0
13 -145 0
2 -146 0
14 -146 0
169 170 -127 0
25 -169 0
37 -169 0
26 -170 0
38 -170 0
193 194 -127 0
49 -193 0
61 -193 0
50 -194 0
62 -194 0
217 218 -127 0
73 -217 0
85 -217 0
74 -218 0
86 -218 0
241 242 -127 0
97 -241 0
109 -241 0
98 -242 0
110 -242 0
147 148 -128 0
1 -147 0
15 -147 0
2 -148 0
16 -148 0
171 172 -128 0
25 -171 0
39 -171 0
26 -172 0
40 -172 0
195 196 -128 0
49 -195 0
63 -195 0
50 -196 0
64 -196 0
219 220 -128 0
73 -219 0
87 -219 0
74 -220 0
88 -220 0
243 244 -128 0
97 -243 0
111 -243 0
98 -244 0
112 -244 0
149 150 -129 0
1 -149 0
17 -149 0
2 -150 0
18 -150 0
173 174 -129 0
25 -173 0
41 -173 0
26 -174 0
42 -174 0
197 198 -129 0
49 -197 0
65 -197 0
50 -198 0
66 -198 0
221 222 -129 0
73 -221 0
89 -221 0
74 -222 0
90 -222 0
245 246 -129 0
97 -245 0
113 -245 0
98 -246 0
114 -246 0
151 152 -130 0
1 -151 0
19 -151 0
2 -152 0
20 -152 0
175 176 -130 0
25 -175 0
43 -175 0
26 -176 0
44 -176 0
199 200 -130 0
49 -199 0
67 -199 0
50 -200 0
68 -200 0
223 224 -130 0
73 -223 0
91 -223 0
74 -224 0
92 -224 0
247 248 -130 0
97 -247 0
115 -247 0
98 -248 0
116 -248 0
153 154 -131 0
1 -153 0
21 -153 0
2 -154 0
22 -154 0
177 178 -131 0
25 -177 0
45 -177 0
26 -178 0
46 -178 0
201 202 -131 0
49 -201 0
69 -201 0
50 -202 0
70 -202 0
225 226 -131 0
73 -225 0
93 -225 0
74 -226 0
94 -226 0
249 250 -131 0
97 -249 0
117 -249 0
98 -250 0
118 -250 0
155 156 -132 0
1 -155 0
23 -155 0
2 -156 0
24 -156 0
179 180 -132 0
25 -179 0
47 -179 0
26 -180 0
48 -180 0
203 204 -132 0
49 -203 0
71 -203 0
50 -204 0
72 -204 0
227 228 -132 0
73 -227 0
95 -227 0
74 -228 0
96 -228 0
251 252 -132 0
97 -251 0
119 -251 0
98 -252 0
120 -252 0
-1 -25 -49 -73 -97 0
-2 -26 -50 -74 -98 0
